-204.0 6.0 8.0 7.0 8.0 0.0 7.0 10.0 9.0 1.0 7.0 6.0 0.0 0.0 0.0 9.0 0.0 3.0 8.0 7.0 10.0 6.0 2.0 2.0 1.0 4.0 0.0 3.0 8.0 5.0 9.0 7.0 1.0 4.0 2.0 10.0 7.0 3.0 3.0 1.0 6.0 6.0 4.0 4.0 
6.0 -220.0 5.0 9.0 8.0 1.0 5.0 6.0 5.0 7.0 2.0 6.0 9.0 4.0 2.0 9.0 3.0 9.0 7.0 4.0 10.0 5.0 2.0 8.0 5.0 9.0 3.0 3.0 4.0 3.0 2.0 9.0 7.0 2.0 7.0 5.0 2.0 7.0 6.0 2.0 2.0 10.0 0.0 0.0 
8.0 5.0 -237.0 0.0 1.0 9.0 5.0 10.0 0.0 1.0 5.0 9.0 7.0 1.0 8.0 0.0 10.0 0.0 10.0 10.0 7.0 8.0 0.0 4.0 5.0 10.0 0.0 10.0 9.0 4.0 3.0 1.0 10.0 2.0 8.0 4.0 8.0 9.0 10.0 8.0 4.0 9.0 3.0 2.0 
7.0 9.0 0.0 -209.0 9.0 0.0 9.0 6.0 6.0 2.0 9.0 5.0 4.0 4.0 6.0 5.0 0.0 9.0 10.0 3.0 4.0 8.0 9.0 0.0 9.0 5.0 9.0 4.0 0.0 6.0 2.0 2.0 10.0 3.0 0.0 2.0 10.0 9.0 2.0 0.0 0.0 6.0 0.0 6.0 
8.0 8.0 1.0 9.0 -226.0 6.0 7.0 9.0 1.0 5.0 10.0 6.0 10.0 2.0 1.0 6.0 4.0 3.0 1.0 0.0 8.0 1.0 4.0 9.0 6.0 8.0 0.0 1.0 7.0 0.0 5.0 4.0 4.0 7.0 1.0 10.0 10.0 8.0 10.0 2.0 2.0 7.0 10.0 5.0 
0.0 1.0 9.0 0.0 6.0 -180.0 1.0 4.0 7.0 6.0 5.0 1.0 4.0 3.0 9.0 4.0 1.0 5.0 3.0 6.0 3.0 7.0 6.0 7.0 7.0 1.0 9.0 2.0 2.0 6.0 1.0 3.0 1.0 1.0 1.0 0.0 9.0 1.0 5.0 8.0 9.0 0.0 6.0 10.0 
7.0 5.0 5.0 9.0 7.0 1.0 -227.0 3.0 9.0 10.0 8.0 0.0 9.0 4.0 9.0 6.0 2.0 5.0 10.0 7.0 0.0 10.0 2.0 4.0 6.0 2.0 4.0 0.0 6.0 7.0 4.0 3.0 8.0 3.0 6.0 4.0 4.0 4.0 2.0 3.0 7.0 10.0 5.0 7.0 
10.0 6.0 10.0 6.0 9.0 4.0 3.0 -251.0 9.0 4.0 1.0 6.0 1.0 6.0 8.0 9.0 4.0 8.0 9.0 2.0 7.0 6.0 8.0 7.0 1.0 1.0 4.0 3.0 4.0 7.0 7.0 9.0 5.0 8.0 5.0 2.0 10.0 9.0 2.0 10.0 3.0 6.0 3.0 9.0 
9.0 5.0 0.0 6.0 1.0 7.0 9.0 9.0 -246.0 6.0 0.0 9.0 5.0 5.0 6.0 4.0 9.0 5.0 1.0 8.0 3.0 1.0 5.0 3.0 7.0 9.0 3.0 10.0 10.0 9.0 1.0 5.0 1.0 8.0 3.0 5.0 1.0 6.0 4.0 8.0 10.0 10.0 10.0 10.0 
1.0 7.0 1.0 2.0 5.0 6.0 10.0 4.0 6.0 -202.0 5.0 6.0 7.0 1.0 5.0 1.0 2.0 1.0 4.0 8.0 7.0 6.0 4.0 8.0 7.0 7.0 9.0 6.0 0.0 5.0 9.0 2.0 6.0 2.0 8.0 1.0 10.0 1.0 3.0 10.0 2.0 0.0 5.0 2.0 
7.0 2.0 5.0 9.0 10.0 5.0 8.0 1.0 0.0 5.0 -209.0 3.0 1.0 10.0 7.0 3.0 5.0 8.0 1.0 9.0 3.0 4.0 2.0 1.0 6.0 10.0 5.0 5.0 10.0 8.0 2.0 6.0 4.0 5.0 4.0 1.0 7.0 4.0 3.0 1.0 8.0 1.0 3.0 7.0 
6.0 6.0 9.0 5.0 6.0 1.0 0.0 6.0 9.0 6.0 3.0 -205.0 8.0 9.0 3.0 2.0 0.0 8.0 0.0 9.0 9.0 1.0 7.0 4.0 8.0 9.0 2.0 9.0 2.0 7.0 1.0 0.0 3.0 5.0 3.0 1.0 0.0 2.0 6.0 3.0 9.0 4.0 5.0 9.0 
0.0 9.0 7.0 4.0 10.0 4.0 9.0 1.0 5.0 7.0 1.0 8.0 -197.0 2.0 1.0 10.0 6.0 3.0 2.0 2.0 1.0 5.0 2.0 2.0 2.0 10.0 4.0 10.0 2.0 9.0 8.0 7.0 9.0 2.0 0.0 10.0 2.0 6.0 2.0 0.0 8.0 1.0 2.0 2.0 
0.0 4.0 1.0 4.0 2.0 3.0 4.0 6.0 5.0 1.0 10.0 9.0 2.0 -198.0 3.0 10.0 5.0 1.0 0.0 2.0 2.0 6.0 9.0 0.0 4.0 9.0 8.0 10.0 5.0 6.0 9.0 10.0 5.0 7.0 0.0 10.0 6.0 9.0 5.0 0.0 1.0 3.0 1.0 1.0 
0.0 2.0 8.0 6.0 1.0 9.0 9.0 8.0 6.0 5.0 7.0 3.0 1.0 3.0 -204.0 0.0 3.0 3.0 5.0 3.0 9.0 1.0 4.0 5.0 7.0 9.0 9.0 0.0 9.0 9.0 6.0 9.0 8.0 2.0 1.0 5.0 4.0 3.0 5.0 9.0 7.0 1.0 0.0 0.0 
9.0 9.0 0.0 5.0 6.0 4.0 6.0 9.0 4.0 1.0 3.0 2.0 10.0 10.0 0.0 -246.0 2.0 9.0 10.0 2.0 1.0 10.0 6.0 10.0 10.0 2.0 1.0 1.0 10.0 9.0 10.0 7.0 3.0 4.0 9.0 8.0 0.0 0.0 10.0 7.0 10.0 7.0 2.0 8.0 
0.0 3.0 10.0 0.0 4.0 1.0 2.0 4.0 9.0 2.0 5.0 0.0 6.0 5.0 3.0 2.0 -204.0 9.0 7.0 5.0 4.0 10.0 5.0 3.0 3.0 1.0 10.0 7.0 10.0 7.0 4.0 3.0 0.0 8.0 7.0 0.0 10.0 10.0 6.0 1.0 2.0 10.0 0.0 6.0 
3.0 9.0 0.0 9.0 3.0 5.0 5.0 8.0 5.0 1.0 8.0 8.0 3.0 1.0 3.0 9.0 9.0 -218.0 9.0 5.0 0.0 4.0 2.0 8.0 1.0 9.0 5.0 10.0 4.0 4.0 6.0 3.0 3.0 7.0 3.0 9.0 8.0 3.0 10.0 5.0 0.0 2.0 1.0 8.0 
8.0 7.0 10.0 10.0 1.0 3.0 10.0 9.0 1.0 4.0 1.0 0.0 2.0 0.0 5.0 10.0 7.0 9.0 -202.0 9.0 3.0 4.0 4.0 8.0 8.0 6.0 4.0 7.0 0.0 7.0 2.0 2.0 1.0 3.0 6.0 4.0 6.0 2.0 1.0 9.0 1.0 3.0 1.0 4.0 
7.0 4.0 10.0 3.0 0.0 6.0 7.0 2.0 8.0 8.0 9.0 9.0 2.0 2.0 3.0 2.0 5.0 5.0 9.0 -226.0 10.0 0.0 6.0 9.0 9.0 9.0 1.0 6.0 8.0 3.0 10.0 9.0 4.0 3.0 2.0 3.0 1.0 4.0 6.0 8.0 3.0 4.0 7.0 0.0 
10.0 10.0 7.0 4.0 8.0 3.0 0.0 7.0 3.0 7.0 3.0 9.0 1.0 2.0 9.0 1.0 4.0 0.0 3.0 10.0 -210.0 4.0 8.0 7.0 4.0 1.0 1.0 8.0 2.0 5.0 0.0 6.0 5.0 4.0 4.0 2.0 2.0 9.0 8.0 3.0 5.0 5.0 6.0 10.0 
6.0 5.0 8.0 8.0 1.0 7.0 10.0 6.0 1.0 6.0 4.0 1.0 5.0 6.0 1.0 10.0 10.0 4.0 4.0 0.0 4.0 -208.0 4.0 1.0 3.0 7.0 6.0 4.0 7.0 7.0 7.0 7.0 6.0 7.0 7.0 3.0 4.0 4.0 0.0 2.0 2.0 1.0 6.0 6.0 
2.0 2.0 0.0 9.0 4.0 6.0 2.0 8.0 5.0 4.0 2.0 7.0 2.0 9.0 4.0 6.0 5.0 2.0 4.0 6.0 8.0 4.0 -195.0 0.0 1.0 5.0 10.0 8.0 8.0 1.0 0.0 0.0 6.0 10.0 5.0 8.0 6.0 1.0 6.0 1.0 9.0 0.0 0.0 9.0 
2.0 8.0 4.0 0.0 9.0 7.0 4.0 7.0 3.0 8.0 1.0 4.0 2.0 0.0 5.0 10.0 3.0 8.0 8.0 9.0 7.0 1.0 0.0 -205.0 6.0 1.0 10.0 3.0 0.0 10.0 8.0 0.0 5.0 4.0 6.0 6.0 5.0 2.0 2.0 9.0 6.0 1.0 8.0 3.0 
1.0 5.0 5.0 9.0 6.0 7.0 6.0 1.0 7.0 7.0 6.0 8.0 2.0 4.0 7.0 10.0 3.0 1.0 8.0 9.0 4.0 3.0 1.0 6.0 -210.0 7.0 8.0 1.0 5.0 6.0 5.0 7.0 4.0 1.0 6.0 4.0 5.0 7.0 0.0 7.0 2.0 0.0 5.0 4.0 
4.0 9.0 10.0 5.0 8.0 1.0 2.0 1.0 9.0 7.0 10.0 9.0 10.0 9.0 9.0 2.0 1.0 9.0 6.0 9.0 1.0 7.0 5.0 1.0 7.0 -228.0 2.0 7.0 3.0 3.0 9.0 0.0 6.0 2.0 7.0 9.0 9.0 0.0 2.0 7.0 2.0 4.0 2.0 3.0 
0.0 3.0 0.0 9.0 0.0 9.0 4.0 4.0 3.0 9.0 5.0 2.0 4.0 8.0 9.0 1.0 10.0 5.0 4.0 1.0 1.0 6.0 10.0 10.0 8.0 2.0 -205.0 5.0 0.0 4.0 4.0 5.0 10.0 5.0 0.0 7.0 3.0 6.0 0.0 0.0 7.0 6.0 8.0 8.0 
3.0 3.0 10.0 4.0 1.0 2.0 0.0 3.0 10.0 6.0 5.0 9.0 10.0 10.0 0.0 1.0 7.0 10.0 7.0 6.0 8.0 4.0 8.0 3.0 1.0 7.0 5.0 -227.0 6.0 10.0 3.0 2.0 9.0 2.0 1.0 4.0 9.0 0.0 3.0 7.0 9.0 10.0 8.0 1.0 
8.0 4.0 9.0 0.0 7.0 2.0 6.0 4.0 10.0 0.0 10.0 2.0 2.0 5.0 9.0 10.0 10.0 4.0 0.0 8.0 2.0 7.0 8.0 0.0 5.0 3.0 0.0 6.0 -219.0 3.0 9.0 10.0 3.0 3.0 4.0 8.0 4.0 0.0 7.0 4.0 6.0 6.0 4.0 7.0 
5.0 3.0 4.0 6.0 0.0 6.0 7.0 7.0 9.0 5.0 8.0 7.0 9.0 6.0 9.0 9.0 7.0 4.0 7.0 3.0 5.0 7.0 1.0 10.0 6.0 3.0 4.0 10.0 3.0 -248.0 4.0 0.0 5.0 5.0 2.0 9.0 9.0 10.0 10.0 2.0 4.0 10.0 6.0 2.0 
9.0 2.0 3.0 2.0 5.0 1.0 4.0 7.0 1.0 9.0 2.0 1.0 8.0 9.0 6.0 10.0 4.0 6.0 2.0 10.0 0.0 7.0 0.0 8.0 5.0 9.0 4.0 3.0 9.0 4.0 -228.0 6.0 10.0 4.0 10.0 2.0 5.0 9.0 8.0 1.0 0.0 5.0 10.0 8.0 
7.0 9.0 1.0 2.0 4.0 3.0 3.0 9.0 5.0 2.0 6.0 0.0 7.0 10.0 9.0 7.0 3.0 3.0 2.0 9.0 6.0 7.0 0.0 0.0 7.0 0.0 5.0 2.0 10.0 0.0 6.0 -224.0 8.0 9.0 2.0 5.0 8.0 5.0 9.0 5.0 10.0 10.0 3.0 6.0 
1.0 7.0 10.0 10.0 4.0 1.0 8.0 5.0 1.0 6.0 4.0 3.0 9.0 5.0 8.0 3.0 0.0 3.0 1.0 4.0 5.0 6.0 6.0 5.0 4.0 6.0 10.0 9.0 3.0 5.0 10.0 8.0 -233.0 9.0 0.0 3.0 4.0 9.0 3.0 9.0 8.0 3.0 5.0 10.0 
4.0 2.0 2.0 3.0 7.0 1.0 3.0 8.0 8.0 2.0 5.0 5.0 2.0 7.0 2.0 4.0 8.0 7.0 3.0 3.0 4.0 7.0 10.0 4.0 1.0 2.0 5.0 2.0 3.0 5.0 4.0 9.0 9.0 -193.0 2.0 8.0 8.0 0.0 1.0 8.0 7.0 6.0 2.0 0.0 
2.0 7.0 8.0 0.0 1.0 1.0 6.0 5.0 3.0 8.0 4.0 3.0 0.0 0.0 1.0 9.0 7.0 3.0 6.0 2.0 4.0 7.0 5.0 6.0 6.0 7.0 0.0 1.0 4.0 2.0 10.0 2.0 0.0 2.0 -187.0 9.0 9.0 8.0 0.0 7.0 4.0 1.0 8.0 9.0 
10.0 5.0 4.0 2.0 10.0 0.0 4.0 2.0 5.0 1.0 1.0 1.0 10.0 10.0 5.0 8.0 0.0 9.0 4.0 3.0 2.0 3.0 8.0 6.0 4.0 9.0 7.0 4.0 8.0 9.0 2.0 5.0 3.0 8.0 9.0 -216.0 1.0 1.0 10.0 2.0 8.0 5.0 3.0 5.0 
7.0 2.0 8.0 10.0 10.0 9.0 4.0 10.0 1.0 10.0 7.0 0.0 2.0 6.0 4.0 0.0 10.0 8.0 6.0 1.0 2.0 4.0 6.0 5.0 5.0 9.0 3.0 9.0 4.0 9.0 5.0 8.0 4.0 8.0 9.0 1.0 -247.0 7.0 1.0 8.0 2.0 8.0 9.0 6.0 
3.0 7.0 9.0 9.0 8.0 1.0 4.0 9.0 6.0 1.0 4.0 2.0 6.0 9.0 3.0 0.0 10.0 3.0 2.0 4.0 9.0 4.0 1.0 2.0 7.0 0.0 6.0 0.0 0.0 10.0 9.0 5.0 9.0 0.0 8.0 1.0 7.0 -224.0 10.0 8.0 3.0 5.0 10.0 10.0 
3.0 6.0 10.0 2.0 10.0 5.0 2.0 2.0 4.0 3.0 3.0 6.0 2.0 5.0 5.0 10.0 6.0 10.0 1.0 6.0 8.0 0.0 6.0 2.0 0.0 2.0 0.0 3.0 7.0 10.0 8.0 9.0 3.0 1.0 0.0 10.0 1.0 10.0 -204.0 2.0 3.0 9.0 9.0 0.0 
1.0 2.0 8.0 0.0 2.0 8.0 3.0 10.0 8.0 10.0 1.0 3.0 0.0 0.0 9.0 7.0 1.0 5.0 9.0 8.0 3.0 2.0 1.0 9.0 7.0 7.0 0.0 7.0 4.0 2.0 1.0 5.0 9.0 8.0 7.0 2.0 8.0 8.0 2.0 -212.0 3.0 7.0 7.0 8.0 
6.0 2.0 4.0 0.0 2.0 9.0 7.0 3.0 10.0 2.0 8.0 9.0 8.0 1.0 7.0 10.0 2.0 0.0 1.0 3.0 5.0 2.0 9.0 6.0 2.0 2.0 7.0 9.0 6.0 4.0 0.0 10.0 8.0 7.0 4.0 8.0 2.0 3.0 3.0 3.0 -202.0 3.0 0.0 5.0 
6.0 10.0 9.0 6.0 7.0 0.0 10.0 6.0 10.0 0.0 1.0 4.0 1.0 3.0 1.0 7.0 10.0 2.0 3.0 4.0 5.0 1.0 0.0 1.0 0.0 4.0 6.0 10.0 6.0 10.0 5.0 10.0 3.0 6.0 1.0 5.0 8.0 5.0 9.0 7.0 3.0 -217.0 9.0 3.0 
4.0 0.0 3.0 0.0 10.0 6.0 5.0 3.0 10.0 5.0 3.0 5.0 2.0 1.0 0.0 2.0 0.0 1.0 1.0 7.0 6.0 6.0 0.0 8.0 5.0 2.0 8.0 8.0 4.0 6.0 10.0 3.0 5.0 2.0 8.0 3.0 9.0 10.0 9.0 7.0 0.0 9.0 -201.0 5.0 
4.0 0.0 2.0 6.0 5.0 10.0 7.0 9.0 10.0 2.0 7.0 9.0 2.0 1.0 0.0 8.0 6.0 8.0 4.0 0.0 10.0 6.0 9.0 3.0 4.0 3.0 8.0 1.0 7.0 2.0 8.0 6.0 10.0 0.0 9.0 5.0 6.0 10.0 0.0 8.0 5.0 3.0 5.0 -228.0 

